52
38 39 43
39 36 41
36 37 43
37 47 49
47 23 16
23 4 32
4 14 25
14 5 40
5 24 124
24 3 109
3 42 245
42 32 365
32 50 475
50 11 188
11 10 387
10 51 399
51 13 319
13 12 206
12 26 185
26 27 110
27 25 159
25 46 186
46 28 523
28 29 260
29 52 480
52 1 187
1 6 45
6 41 76
41 20 290
20 16 253
16 2 217
2 40 247
40 7 64
7 8 183
8 9 83
9 18 291
18 44 75
44 31 151
31 48 50
48 21 94
21 17 116
17 30 80
30 22 152
22 19 94
19 49 35
49 15 130
15 45 156
45 43 131
43 33 80
33 34 21
34 35 15
35 38 43

